c Sudoku solution
p cnf 729 0
137 0
142 0
163 0
189 0
212 0
277 0
341 0
414 0
435 0
573 0
586 0
599 0
647 0
658 0
684 0
691 0
675 0
732 0
743 0
453 0
795 0
815 0
826 0
869 0
449 0
466 0
662 0
421 0
538 0
517 0
522 0
883 0
956 0
852 0
776 0
979 0
897 0
246 0
487 0
324 0
372 0
478 0
492 0
848 0
982 0
155 0
128 0
225 0
385 0
368 0
357 0
264 0
259 0
754 0
945 0
544 0
551 0
565 0
233 0
111 0
174 0
281 0
196 0
393 0
298 0
871 0
788 0
994 0
761 0
967 0
727 0
923 0
918 0
719 0
834 0
931 0
613 0
629 0
636 0
316 0
339 0
